
        $ From http://www.csplib.org/Problems/prob009/data/helmut.pdf
        $ Problem number 195
        $ Sequence length : 25
        language ESSENCE' 1.0
        letting sizemaster be 595
        letting sizes be sequence(4,13,18,19,22,35,40,48,58,61,62,77,78,82,83,86,118,149,163,168,187,192,202,206,240)
        